p cnf 10 50
-2 2 6 0
-8 -2 10 0
-2 8 10 0
2 3 6 0
-7 -7 4 0
-6 -3 1 0
-10 -9 1 0
-1 2 8 0
-10 2 7 0
-9 1 2 0
-4 -3 2 0
-9 2 9 0
-10 -7 -6 0
-2 4 7 0
-4 -2 3 0
-10 -7 9 0
-3 2 10 0
-10 -1 7 0
-5 -4 2 0
1 6 9 0
-1 6 10 0
-5 1 9 0
-8 -4 1 0
-9 3 5 0
-4 -3 9 0
-8 -3 2 0
-7 2 4 0
-6 2 8 0
-4 -1 5 0
-4 6 10 0
-9 -8 10 0
-9 -5 -2 0
-10 3 8 0
-6 6 9 0
-9 -2 7 0
-10 -4 3 0
-7 -5 6 0
-8 -5 -3 0
-7 -6 1 0
-3 2 7 0
-2 -2 3 0
-6 -5 4 0
-10 -6 7 0
-4 -2 1 0
-10 -2 9 0
1 9 10 0
-6 1 10 0
-7 -5 -1 0
-4 1 2 0
2 5 9 0
